(set-info :smt-lib-version 2.6)
(set-logic QF_NRA)
(set-info :source |Benchmarks generated from hycomp (https://es-static.fbk.eu/tools/hycomp/). BMC instances of non-linear hybrid automata taken from: Alessandro Cimatti, Sergio Mover, Stefano Tonetta, A quantifier-free SMT encoding of non-linear hybrid automata, FMCAD 2012 and Alessandro Cimatti, Sergio Mover, Stefano Tonetta, Quantier-free encoding of invariants for Hybrid Systems, Formal Methods in System Design. This instance solves a BMC problem of depth 2 and uses the quantifier free encoding with equivalences and lemmas encoding. Contacts: Sergio Mover (mover@fbk.eu), Stefano Tonetta (tonettas@fbk.eu), Alessandro Cimatti (cimatti@fbk.eu).|)
(set-info :category "industrial")
(set-info :status sat)
;; MathSAT API call trace
;; generated on Mon Mar 19 10:39:31 2012
(declare-fun b.counter.2__AT1 () Bool)
(declare-fun b.delta__AT2 () Real)
(declare-fun b.EVENT.0__AT2 () Bool)
(declare-fun speed_loss__AT0 () Real)
(declare-fun b.y__AT2 () Real)
(declare-fun b.EVENT.1__AT2 () Bool)
(declare-fun b.speed_y__AT0 () Real)
(declare-fun b.event_is_timed__AT1 () Bool)
(declare-fun b.counter.0__AT2 () Bool)
(declare-fun b.event_is_timed__AT0 () Bool)
(declare-fun b.counter.1__AT2 () Bool)
(declare-fun b.counter.3__AT1 () Bool)
(declare-fun b.delta__AT0 () Real)
(declare-fun b.y__AT1 () Real)
(declare-fun b.counter.0__AT1 () Bool)
(declare-fun b.counter.3__AT0 () Bool)
(declare-fun b.speed_y__AT2 () Real)
(declare-fun b.counter.2__AT2 () Bool)
(declare-fun b.delta__AT1 () Real)
(declare-fun b.counter.3__AT2 () Bool)
(declare-fun b.EVENT.0__AT1 () Bool)
(declare-fun b.EVENT.1__AT0 () Bool)
(declare-fun b.EVENT.1__AT1 () Bool)
(declare-fun b.EVENT.0__AT0 () Bool)
(declare-fun b.time__AT1 () Real)
(declare-fun b.speed_y__AT1 () Real)
(declare-fun b.time__AT0 () Real)
(declare-fun b.event_is_timed__AT2 () Bool)
(declare-fun b.y__AT0 () Real)
(declare-fun b.counter.0__AT0 () Bool)
(declare-fun b.counter.2__AT0 () Bool)
(declare-fun b.counter.1__AT0 () Bool)
(declare-fun b.counter.1__AT1 () Bool)
(declare-fun b.time__AT2 () Real)
(assert (let ((.def_464 (<= 0.0 b.speed_y__AT2)))
(let ((.def_458 (* (- 49.0) b.delta__AT2)))
(let ((.def_459 (* 5.0 b.speed_y__AT2)))
(let ((.def_461 (+ .def_459 .def_458)))
(let ((.def_462 (<= 0.0 .def_461)))
(let ((.def_463 (not .def_462)))
(let ((.def_495 (or .def_463 .def_464)))
(let ((.def_478 (<= .def_461 0.0 )))
(let ((.def_476 (<= b.speed_y__AT2 0.0 )))
(let ((.def_477 (not .def_476)))
(let ((.def_494 (or .def_477 .def_478)))
(let ((.def_496 (and .def_494 .def_495)))
(let ((.def_491 (and .def_476 .def_478)))
(let ((.def_490 (and .def_462 .def_464)))
(let ((.def_492 (or .def_490 .def_491)))
(let ((.def_450 (* b.speed_y__AT2 b.delta__AT2)))
(let ((.def_451 (* 10.0 .def_450)))
(let ((.def_448 (* b.delta__AT2 b.delta__AT2)))
(let ((.def_449 (* (- 49.0) .def_448)))
(let ((.def_452 (+ .def_449 .def_451)))
(let ((.def_453 (* 10.0 b.y__AT2)))
(let ((.def_455 (+ .def_453 .def_452)))
(let ((.def_470 (<= .def_455 0.0 )))
(let ((.def_484 (not .def_470)))
(let ((.def_468 (<= b.y__AT2 0.0 )))
(let ((.def_485 (or .def_468 .def_484)))
(let ((.def_438 (<= 0.0 b.y__AT2)))
(let ((.def_482 (not .def_438)))
(let ((.def_456 (<= 0.0 .def_455)))
(let ((.def_483 (or .def_456 .def_482)))
(let ((.def_486 (and .def_483 .def_485)))
(let ((.def_479 (not .def_478)))
(let ((.def_480 (or .def_477 .def_479)))
(let ((.def_481 (not .def_480)))
(let ((.def_487 (or .def_481 .def_486)))
(let ((.def_472 (not .def_456)))
(let ((.def_473 (or .def_438 .def_472)))
(let ((.def_469 (not .def_468)))
(let ((.def_471 (or .def_469 .def_470)))
(let ((.def_474 (and .def_471 .def_473)))
(let ((.def_465 (not .def_464)))
(let ((.def_466 (or .def_463 .def_465)))
(let ((.def_467 (not .def_466)))
(let ((.def_475 (or .def_467 .def_474)))
(let ((.def_488 (and .def_475 .def_487)))
(let ((.def_457 (and .def_438 .def_456)))
(let ((.def_489 (and .def_457 .def_488)))
(let ((.def_493 (and .def_489 .def_492)))
(let ((.def_497 (and .def_493 .def_496)))
(let ((.def_59 (<= speed_loss__AT0 (/ 1 2))))
(let ((.def_56 (<= (/ 1 10) speed_loss__AT0)))
(let ((.def_60 (and .def_56 .def_59)))
(let ((.def_498 (and .def_60 .def_497)))
(let ((.def_144 (not b.counter.0__AT1)))
(let ((.def_132 (not b.counter.1__AT1)))
(let ((.def_442 (and .def_132 .def_144)))
(let ((.def_139 (not b.counter.2__AT1)))
(let ((.def_443 (and .def_139 .def_442)))
(let ((.def_154 (not b.counter.3__AT1)))
(let ((.def_444 (and .def_154 .def_443)))
(let ((.def_439 (and .def_60 .def_438)))
(let ((.def_435 (not b.EVENT.0__AT2)))
(let ((.def_433 (not b.EVENT.1__AT2)))
(let ((.def_436 (or .def_433 .def_435)))
(let ((.def_6 (not b.counter.0__AT2)))
(let ((.def_4 (not b.counter.1__AT2)))
(let ((.def_426 (or .def_4 .def_6)))
(let ((.def_430 (or b.counter.3__AT2 .def_426)))
(let ((.def_427 (or b.counter.2__AT2 .def_426)))
(let ((.def_9 (not b.counter.2__AT2)))
(let ((.def_425 (or .def_6 .def_9)))
(let ((.def_428 (and .def_425 .def_427)))
(let ((.def_12 (not b.counter.3__AT2)))
(let ((.def_429 (or .def_12 .def_428)))
(let ((.def_431 (and .def_429 .def_430)))
(let ((.def_437 (and .def_431 .def_436)))
(let ((.def_440 (and .def_437 .def_439)))
(let ((.def_420 (<= 0.0 b.delta__AT1)))
(let ((.def_253 (not b.EVENT.0__AT1)))
(let ((.def_251 (not b.EVENT.1__AT1)))
(let ((.def_367 (and .def_251 .def_253)))
(let ((.def_371 (not .def_367)))
(let ((.def_421 (or .def_371 .def_420)))
(let ((.def_422 (or b.EVENT.1__AT1 .def_421)))
(let ((.def_359 (= b.counter.0__AT2 b.counter.0__AT1)))
(let ((.def_357 (= b.counter.1__AT2 b.counter.1__AT1)))
(let ((.def_355 (= b.counter.2__AT2 b.counter.2__AT1)))
(let ((.def_354 (= b.counter.3__AT2 b.counter.3__AT1)))
(let ((.def_356 (and .def_354 .def_355)))
(let ((.def_358 (and .def_356 .def_357)))
(let ((.def_360 (and .def_358 .def_359)))
(let ((.def_417 (or .def_360 .def_371)))
(let ((.def_418 (or b.EVENT.1__AT1 .def_417)))
(let ((.def_405 (* (- 10.0) b.y__AT2)))
(let ((.def_265 (* b.speed_y__AT1 b.delta__AT1)))
(let ((.def_266 (* 10.0 .def_265)))
(let ((.def_409 (+ .def_266 .def_405)))
(let ((.def_263 (* b.delta__AT1 b.delta__AT1)))
(let ((.def_264 (* (- 49.0) .def_263)))
(let ((.def_410 (+ .def_264 .def_409)))
(let ((.def_268 (* 10.0 b.y__AT1)))
(let ((.def_411 (+ .def_268 .def_410)))
(let ((.def_412 (= .def_411 0.0 )))
(let ((.def_401 (* (- 5.0) b.speed_y__AT2)))
(let ((.def_273 (* (- 49.0) b.delta__AT1)))
(let ((.def_402 (+ .def_273 .def_401)))
(let ((.def_274 (* 5.0 b.speed_y__AT1)))
(let ((.def_403 (+ .def_274 .def_402)))
(let ((.def_404 (= .def_403 0.0 )))
(let ((.def_413 (and .def_404 .def_412)))
(let ((.def_414 (or .def_371 .def_413)))
(let ((.def_365 (= b.y__AT1 b.y__AT2)))
(let ((.def_353 (= b.speed_y__AT1 b.speed_y__AT2)))
(let ((.def_398 (and .def_353 .def_365)))
(let ((.def_395 (= b.delta__AT1 0.0 )))
(let ((.def_396 (and .def_367 .def_395)))
(let ((.def_397 (not .def_396)))
(let ((.def_399 (or .def_397 .def_398)))
(let ((.def_400 (or b.EVENT.1__AT1 .def_399)))
(let ((.def_415 (and .def_400 .def_414)))
(let ((.def_377 (= b.time__AT1 b.time__AT2)))
(let ((.def_389 (and .def_365 .def_377)))
(let ((.def_390 (and .def_353 .def_389)))
(let ((.def_391 (and .def_360 .def_390)))
(let ((.def_392 (or .def_251 .def_391)))
(let ((.def_380 (* (- 1.0) b.time__AT2)))
(let ((.def_383 (+ b.delta__AT1 .def_380)))
(let ((.def_384 (+ b.time__AT1 .def_383)))
(let ((.def_385 (= .def_384 0.0 )))
(let ((.def_386 (or .def_371 .def_385)))
(let ((.def_387 (or b.EVENT.1__AT1 .def_386)))
(let ((.def_378 (or .def_367 .def_377)))
(let ((.def_379 (or b.EVENT.1__AT1 .def_378)))
(let ((.def_388 (and .def_379 .def_387)))
(let ((.def_393 (and .def_388 .def_392)))
(let ((.def_373 (= .def_371 b.event_is_timed__AT2)))
(let ((.def_370 (= b.event_is_timed__AT1 .def_367)))
(let ((.def_374 (and .def_370 .def_373)))
(let ((.def_361 (and .def_353 .def_360)))
(let ((.def_315 (= b.y__AT1 0.0 )))
(let ((.def_279 (<= 0.0 b.speed_y__AT1)))
(let ((.def_280 (not .def_279)))
(let ((.def_316 (and .def_280 .def_315)))
(let ((.def_362 (or .def_316 .def_361)))
(let ((.def_330 (or .def_6 b.counter.0__AT1)))
(let ((.def_329 (or b.counter.0__AT2 .def_144)))
(let ((.def_331 (and .def_329 .def_330)))
(let ((.def_332 (and .def_4 .def_331)))
(let ((.def_333 (or b.counter.1__AT1 .def_332)))
(let ((.def_328 (or b.counter.1__AT2 .def_132)))
(let ((.def_334 (and .def_328 .def_333)))
(let ((.def_345 (and .def_9 .def_334)))
(let ((.def_346 (or b.counter.2__AT1 .def_345)))
(let ((.def_340 (and .def_4 .def_144)))
(let ((.def_341 (or b.counter.1__AT1 .def_340)))
(let ((.def_342 (and .def_328 .def_341)))
(let ((.def_343 (and b.counter.2__AT2 .def_342)))
(let ((.def_344 (or .def_139 .def_343)))
(let ((.def_347 (and .def_344 .def_346)))
(let ((.def_348 (and b.counter.3__AT2 .def_347)))
(let ((.def_349 (or b.counter.3__AT1 .def_348)))
(let ((.def_335 (and b.counter.2__AT2 .def_334)))
(let ((.def_336 (or b.counter.2__AT1 .def_335)))
(let ((.def_324 (or b.counter.1__AT2 b.counter.1__AT1)))
(let ((.def_322 (and .def_4 b.counter.0__AT2)))
(let ((.def_323 (or .def_132 .def_322)))
(let ((.def_325 (and .def_323 .def_324)))
(let ((.def_326 (and .def_9 .def_325)))
(let ((.def_327 (or .def_139 .def_326)))
(let ((.def_337 (and .def_327 .def_336)))
(let ((.def_338 (and .def_12 .def_337)))
(let ((.def_339 (or .def_154 .def_338)))
(let ((.def_350 (and .def_339 .def_349)))
(let ((.def_318 (* (- 1.0) b.speed_y__AT1)))
(let ((.def_126 (* (- 1.0) speed_loss__AT0)))
(let ((.def_127 (+ 1.0 .def_126)))
(let ((.def_319 (* .def_127 .def_318)))
(let ((.def_321 (= .def_319 b.speed_y__AT2)))
(let ((.def_351 (and .def_321 .def_350)))
(let ((.def_317 (not .def_316)))
(let ((.def_352 (or .def_317 .def_351)))
(let ((.def_363 (and .def_352 .def_362)))
(let ((.def_366 (and .def_363 .def_365)))
(let ((.def_368 (or .def_366 .def_367)))
(let ((.def_369 (or b.EVENT.1__AT1 .def_368)))
(let ((.def_375 (and .def_369 .def_374)))
(let ((.def_394 (and .def_375 .def_393)))
(let ((.def_416 (and .def_394 .def_415)))
(let ((.def_419 (and .def_416 .def_418)))
(let ((.def_423 (and .def_419 .def_422)))
(let ((.def_424 (and .def_251 .def_423)))
(let ((.def_441 (and .def_424 .def_440)))
(let ((.def_445 (and .def_441 .def_444)))
(let ((.def_276 (+ .def_274 .def_273)))
(let ((.def_277 (<= 0.0 .def_276)))
(let ((.def_278 (not .def_277)))
(let ((.def_310 (or .def_278 .def_279)))
(let ((.def_293 (<= .def_276 0.0 )))
(let ((.def_291 (<= b.speed_y__AT1 0.0 )))
(let ((.def_292 (not .def_291)))
(let ((.def_309 (or .def_292 .def_293)))
(let ((.def_311 (and .def_309 .def_310)))
(let ((.def_306 (and .def_291 .def_293)))
(let ((.def_305 (and .def_277 .def_279)))
(let ((.def_307 (or .def_305 .def_306)))
(let ((.def_267 (+ .def_264 .def_266)))
(let ((.def_270 (+ .def_268 .def_267)))
(let ((.def_285 (<= .def_270 0.0 )))
(let ((.def_299 (not .def_285)))
(let ((.def_283 (<= b.y__AT1 0.0 )))
(let ((.def_300 (or .def_283 .def_299)))
(let ((.def_256 (<= 0.0 b.y__AT1)))
(let ((.def_297 (not .def_256)))
(let ((.def_271 (<= 0.0 .def_270)))
(let ((.def_298 (or .def_271 .def_297)))
(let ((.def_301 (and .def_298 .def_300)))
(let ((.def_294 (not .def_293)))
(let ((.def_295 (or .def_292 .def_294)))
(let ((.def_296 (not .def_295)))
(let ((.def_302 (or .def_296 .def_301)))
(let ((.def_287 (not .def_271)))
(let ((.def_288 (or .def_256 .def_287)))
(let ((.def_284 (not .def_283)))
(let ((.def_286 (or .def_284 .def_285)))
(let ((.def_289 (and .def_286 .def_288)))
(let ((.def_281 (or .def_278 .def_280)))
(let ((.def_282 (not .def_281)))
(let ((.def_290 (or .def_282 .def_289)))
(let ((.def_303 (and .def_290 .def_302)))
(let ((.def_272 (and .def_256 .def_271)))
(let ((.def_304 (and .def_272 .def_303)))
(let ((.def_308 (and .def_304 .def_307)))
(let ((.def_312 (and .def_308 .def_311)))
(let ((.def_313 (and .def_60 .def_312)))
(let ((.def_257 (and .def_60 .def_256)))
(let ((.def_254 (or .def_251 .def_253)))
(let ((.def_244 (or .def_132 .def_144)))
(let ((.def_248 (or b.counter.3__AT1 .def_244)))
(let ((.def_245 (or b.counter.2__AT1 .def_244)))
(let ((.def_243 (or .def_139 .def_144)))
(let ((.def_246 (and .def_243 .def_245)))
(let ((.def_247 (or .def_154 .def_246)))
(let ((.def_249 (and .def_247 .def_248)))
(let ((.def_255 (and .def_249 .def_254)))
(let ((.def_258 (and .def_255 .def_257)))
(let ((.def_238 (<= 0.0 b.delta__AT0)))
(let ((.def_49 (not b.EVENT.0__AT0)))
(let ((.def_47 (not b.EVENT.1__AT0)))
(let ((.def_184 (and .def_47 .def_49)))
(let ((.def_188 (not .def_184)))
(let ((.def_239 (or .def_188 .def_238)))
(let ((.def_240 (or b.EVENT.1__AT0 .def_239)))
(let ((.def_176 (= b.counter.0__AT0 b.counter.0__AT1)))
(let ((.def_174 (= b.counter.1__AT0 b.counter.1__AT1)))
(let ((.def_172 (= b.counter.2__AT0 b.counter.2__AT1)))
(let ((.def_171 (= b.counter.3__AT0 b.counter.3__AT1)))
(let ((.def_173 (and .def_171 .def_172)))
(let ((.def_175 (and .def_173 .def_174)))
(let ((.def_177 (and .def_175 .def_176)))
(let ((.def_235 (or .def_177 .def_188)))
(let ((.def_236 (or b.EVENT.1__AT0 .def_235)))
(let ((.def_224 (* (- 10.0) b.y__AT1)))
(let ((.def_70 (* b.speed_y__AT0 b.delta__AT0)))
(let ((.def_71 (* 10.0 .def_70)))
(let ((.def_227 (+ .def_71 .def_224)))
(let ((.def_66 (* b.delta__AT0 b.delta__AT0)))
(let ((.def_69 (* (- 49.0) .def_66)))
(let ((.def_228 (+ .def_69 .def_227)))
(let ((.def_73 (* 10.0 b.y__AT0)))
(let ((.def_229 (+ .def_73 .def_228)))
(let ((.def_230 (= .def_229 0.0 )))
(let ((.def_219 (* (- 5.0) b.speed_y__AT1)))
(let ((.def_78 (* (- 49.0) b.delta__AT0)))
(let ((.def_220 (+ .def_78 .def_219)))
(let ((.def_80 (* 5.0 b.speed_y__AT0)))
(let ((.def_221 (+ .def_80 .def_220)))
(let ((.def_222 (= .def_221 0.0 )))
(let ((.def_231 (and .def_222 .def_230)))
(let ((.def_232 (or .def_188 .def_231)))
(let ((.def_182 (= b.y__AT0 b.y__AT1)))
(let ((.def_170 (= b.speed_y__AT0 b.speed_y__AT1)))
(let ((.def_215 (and .def_170 .def_182)))
(let ((.def_212 (= b.delta__AT0 0.0 )))
(let ((.def_213 (and .def_184 .def_212)))
(let ((.def_214 (not .def_213)))
(let ((.def_216 (or .def_214 .def_215)))
(let ((.def_217 (or b.EVENT.1__AT0 .def_216)))
(let ((.def_233 (and .def_217 .def_232)))
(let ((.def_194 (= b.time__AT0 b.time__AT1)))
(let ((.def_206 (and .def_182 .def_194)))
(let ((.def_207 (and .def_170 .def_206)))
(let ((.def_208 (and .def_177 .def_207)))
(let ((.def_209 (or .def_47 .def_208)))
(let ((.def_197 (* (- 1.0) b.time__AT1)))
(let ((.def_200 (+ b.delta__AT0 .def_197)))
(let ((.def_201 (+ b.time__AT0 .def_200)))
(let ((.def_202 (= .def_201 0.0 )))
(let ((.def_203 (or .def_188 .def_202)))
(let ((.def_204 (or b.EVENT.1__AT0 .def_203)))
(let ((.def_195 (or .def_184 .def_194)))
(let ((.def_196 (or b.EVENT.1__AT0 .def_195)))
(let ((.def_205 (and .def_196 .def_204)))
(let ((.def_210 (and .def_205 .def_209)))
(let ((.def_190 (= .def_188 b.event_is_timed__AT1)))
(let ((.def_187 (= b.event_is_timed__AT0 .def_184)))
(let ((.def_191 (and .def_187 .def_190)))
(let ((.def_178 (and .def_170 .def_177)))
(let ((.def_121 (= b.y__AT0 0.0 )))
(let ((.def_85 (<= 0.0 b.speed_y__AT0)))
(let ((.def_86 (not .def_85)))
(let ((.def_122 (and .def_86 .def_121)))
(let ((.def_179 (or .def_122 .def_178)))
(let ((.def_145 (or b.counter.0__AT0 .def_144)))
(let ((.def_30 (not b.counter.0__AT0)))
(let ((.def_143 (or .def_30 b.counter.0__AT1)))
(let ((.def_146 (and .def_143 .def_145)))
(let ((.def_147 (and .def_132 .def_146)))
(let ((.def_148 (or b.counter.1__AT0 .def_147)))
(let ((.def_28 (not b.counter.1__AT0)))
(let ((.def_142 (or .def_28 b.counter.1__AT1)))
(let ((.def_149 (and .def_142 .def_148)))
(let ((.def_162 (and .def_139 .def_149)))
(let ((.def_163 (or b.counter.2__AT0 .def_162)))
(let ((.def_157 (and .def_30 .def_132)))
(let ((.def_158 (or b.counter.1__AT0 .def_157)))
(let ((.def_159 (and .def_142 .def_158)))
(let ((.def_160 (and b.counter.2__AT1 .def_159)))
(let ((.def_33 (not b.counter.2__AT0)))
(let ((.def_161 (or .def_33 .def_160)))
(let ((.def_164 (and .def_161 .def_163)))
(let ((.def_165 (and b.counter.3__AT1 .def_164)))
(let ((.def_166 (or b.counter.3__AT0 .def_165)))
(let ((.def_150 (and b.counter.2__AT1 .def_149)))
(let ((.def_151 (or b.counter.2__AT0 .def_150)))
(let ((.def_136 (or b.counter.1__AT0 b.counter.1__AT1)))
(let ((.def_134 (and .def_132 b.counter.0__AT1)))
(let ((.def_135 (or .def_28 .def_134)))
(let ((.def_137 (and .def_135 .def_136)))
(let ((.def_140 (and .def_137 .def_139)))
(let ((.def_141 (or .def_33 .def_140)))
(let ((.def_152 (and .def_141 .def_151)))
(let ((.def_155 (and .def_152 .def_154)))
(let ((.def_36 (not b.counter.3__AT0)))
(let ((.def_156 (or .def_36 .def_155)))
(let ((.def_167 (and .def_156 .def_166)))
(let ((.def_125 (* (- 1.0) b.speed_y__AT0)))
(let ((.def_128 (* .def_125 .def_127)))
(let ((.def_130 (= .def_128 b.speed_y__AT1)))
(let ((.def_168 (and .def_130 .def_167)))
(let ((.def_123 (not .def_122)))
(let ((.def_169 (or .def_123 .def_168)))
(let ((.def_180 (and .def_169 .def_179)))
(let ((.def_183 (and .def_180 .def_182)))
(let ((.def_185 (or .def_183 .def_184)))
(let ((.def_186 (or b.EVENT.1__AT0 .def_185)))
(let ((.def_192 (and .def_186 .def_191)))
(let ((.def_211 (and .def_192 .def_210)))
(let ((.def_234 (and .def_211 .def_233)))
(let ((.def_237 (and .def_234 .def_236)))
(let ((.def_241 (and .def_237 .def_240)))
(let ((.def_242 (and .def_47 .def_241)))
(let ((.def_259 (and .def_242 .def_258)))
(let ((.def_31 (and .def_28 .def_30)))
(let ((.def_34 (and .def_31 .def_33)))
(let ((.def_37 (and .def_34 .def_36)))
(let ((.def_260 (and .def_37 .def_259)))
(let ((.def_82 (+ .def_80 .def_78)))
(let ((.def_83 (<= 0.0 .def_82)))
(let ((.def_84 (not .def_83)))
(let ((.def_116 (or .def_84 .def_85)))
(let ((.def_99 (<= .def_82 0.0 )))
(let ((.def_97 (<= b.speed_y__AT0 0.0 )))
(let ((.def_98 (not .def_97)))
(let ((.def_115 (or .def_98 .def_99)))
(let ((.def_117 (and .def_115 .def_116)))
(let ((.def_112 (and .def_97 .def_99)))
(let ((.def_111 (and .def_83 .def_85)))
(let ((.def_113 (or .def_111 .def_112)))
(let ((.def_72 (+ .def_69 .def_71)))
(let ((.def_75 (+ .def_73 .def_72)))
(let ((.def_91 (<= .def_75 0.0 )))
(let ((.def_105 (not .def_91)))
(let ((.def_89 (<= b.y__AT0 0.0 )))
(let ((.def_106 (or .def_89 .def_105)))
(let ((.def_52 (<= 0.0 b.y__AT0)))
(let ((.def_103 (not .def_52)))
(let ((.def_76 (<= 0.0 .def_75)))
(let ((.def_104 (or .def_76 .def_103)))
(let ((.def_107 (and .def_104 .def_106)))
(let ((.def_100 (not .def_99)))
(let ((.def_101 (or .def_98 .def_100)))
(let ((.def_102 (not .def_101)))
(let ((.def_108 (or .def_102 .def_107)))
(let ((.def_93 (not .def_76)))
(let ((.def_94 (or .def_52 .def_93)))
(let ((.def_90 (not .def_89)))
(let ((.def_92 (or .def_90 .def_91)))
(let ((.def_95 (and .def_92 .def_94)))
(let ((.def_87 (or .def_84 .def_86)))
(let ((.def_88 (not .def_87)))
(let ((.def_96 (or .def_88 .def_95)))
(let ((.def_109 (and .def_96 .def_108)))
(let ((.def_77 (and .def_52 .def_76)))
(let ((.def_110 (and .def_77 .def_109)))
(let ((.def_114 (and .def_110 .def_113)))
(let ((.def_118 (and .def_114 .def_117)))
(let ((.def_119 (and .def_60 .def_118)))
(let ((.def_61 (and .def_52 .def_60)))
(let ((.def_50 (or .def_47 .def_49)))
(let ((.def_40 (or .def_28 .def_30)))
(let ((.def_44 (or b.counter.3__AT0 .def_40)))
(let ((.def_41 (or b.counter.2__AT0 .def_40)))
(let ((.def_39 (or .def_30 .def_33)))
(let ((.def_42 (and .def_39 .def_41)))
(let ((.def_43 (or .def_36 .def_42)))
(let ((.def_45 (and .def_43 .def_44)))
(let ((.def_51 (and .def_45 .def_50)))
(let ((.def_62 (and .def_51 .def_61)))
(let ((.def_25 (= b.speed_y__AT0 0.0 )))
(let ((.def_22 (= b.y__AT0 10.0 )))
(let ((.def_17 (= b.time__AT0 0.0 )))
(let ((.def_19 (and .def_17 b.event_is_timed__AT0)))
(let ((.def_23 (and .def_19 .def_22)))
(let ((.def_26 (and .def_23 .def_25)))
(let ((.def_38 (and .def_26 .def_37)))
(let ((.def_63 (and .def_38 .def_62)))
(let ((.def_7 (and .def_4 .def_6)))
(let ((.def_10 (and .def_7 .def_9)))
(let ((.def_13 (and .def_10 .def_12)))
(let ((.def_14 (not .def_13)))
(let ((.def_64 (and .def_14 .def_63)))
(let ((.def_120 (and .def_64 .def_119)))
(let ((.def_261 (and .def_120 .def_260)))
(let ((.def_314 (and .def_261 .def_313)))
(let ((.def_446 (and .def_314 .def_445)))
(let ((.def_499 (and .def_446 .def_498)))
.def_499)))))))))))))))))))))))))))))))))))))))))))))))))))))))))))))))))))))))))))))))))))))))))))))))))))))))))))))))))))))))))))))))))))))))))))))))))))))))))))))))))))))))))))))))))))))))))))))))))))))))))))))))))))))))))))))))))))))))))))))))))))))))))))))))))))))))))))))))))))))))))))))))))))))))))))))))))))))))))))))))))))))))))))))))))))))))))))))))))))))))))))))))))))))))))))))))))))))))))))))))))))))))))))))))))))))))))))))))))))))
(check-sat)
(exit)
